%chk=RphenoxM2.chk
# hf/3-21g geom=connectivity

Title Card Required

0 2
 C                 -0.98500180    2.76280389    1.01007570
 C                  0.41132620    2.76386395    0.89095824
 C                  1.10854890    3.97804160    0.83116604
 C                  0.40944396    5.19115918    0.89049536
 C                 -0.98688380    5.19009912    1.00961552
 C                 -1.68410680    3.97592148    1.06940424
 H                 -1.51734668    1.83575232    1.05572983
 H                 -1.52066605    6.11634132    1.05491351
 H                 -2.75023396    3.97511210    1.16035607
 O                  2.53337306    3.97912329    0.70961379
 C                  0.29279121    7.42595941    0.22331716
 H                  0.82513631    8.35301098    0.17766551
 H                  0.02959370    7.11668460   -0.76662030
 H                 -0.59598709    7.55332424    0.80534063
 C                  0.29814122    0.52863045    0.22463474
 H                  0.83192362   -0.39761175    0.17933858
 H                 -0.59043977    0.40010993    0.80670544
 H                  0.03446655    0.83711798   -0.76542138
 O                  1.12469894    1.52598887    0.83042226
 O                  1.12089582    6.43011596    0.82948429

 1 2 1.5 6 1.5 7 1.0
 2 3 1.5 19 1.0
 3 4 1.5 10 1.0
 4 5 1.5 20 1.0
 5 6 1.5 8 1.0
 6 9 1.0
 7
 8
 9
 10
 11 12 1.0 13 1.0 14 1.0 20 1.0
 12
 13
 14
 15 16 1.0 17 1.0 18 1.0 19 1.0
 16
 17
 18
 19
 20

