%chk=8KETM2.chk
# hf/3-21g geom=connectivity

Title Card Required

0 1
 C                 -1.06031219    3.14828909    0.12212764
 C                  0.28910900    2.89857010    0.40607277
 C                  1.07882411    3.89804234    0.99030495
 C                  0.51911709    5.14723234    1.29059540
 C                 -0.83030447    5.39695086    1.00665157
 C                 -1.62001889    4.39747951    0.42241694
 H                 -1.66327714    2.38516993   -0.32394680
 H                 -1.25765383    6.35073432    1.23593225
 O                  2.45578547    3.64322831    1.28004141
 C                  0.84552525    7.45166633    1.48061737
 H                  1.44848981    8.21478499    1.92669321
 H                  0.89939945    7.53190617    0.41499120
 H                 -0.17004261    7.56948595    1.79627614
 C                  0.19194154    1.06193478   -1.03281426
 H                  0.61928956    0.10814955   -1.26209008
 H                 -0.84787402    0.94270104   -0.81040267
 H                  0.30435535    1.71447340   -1.87332391
 O                  0.86023766    1.62388516    0.09965741
 O                  1.32494823    6.16710119    1.88675283
 H                  2.53525662    3.28599423    2.16754812
 C                 -3.10289964    4.67189557    0.11039046
 C                 -3.97071826    3.57357465   -0.53162356
 C                 -3.45441708    2.19019726   -0.09424492
 H                 -4.05738197    1.42707818   -0.54031959
 H                 -2.43884929    2.07237679   -0.40990359
 O                 -3.52641713    2.08296296    1.32990985
 H                 -3.20456705    1.22059783    1.60256147
 O                 -3.60549325    5.79361779    0.38003741
 H                 -4.98628605    3.69139513   -0.21596489
 H                 -3.91684410    3.65381290   -1.59724985

 1 2 1.5 6 1.5 7 1.0
 2 3 1.5 18 1.0
 3 4 1.5 9 1.0
 4 5 1.5 19 1.0
 5 6 1.5 8 1.0
 6 21 1.0
 7
 8
 9 20 1.0
 10 11 1.0 12 1.0 13 1.0 19 1.0
 11
 12
 13
 14 15 1.0 16 1.0 17 1.0 18 1.0
 15
 16
 17
 18
 19
 20
 21 22 1.0 28 2.0
 22 23 1.0 29 1.0 30 1.0
 23 24 1.0 25 1.0 26 1.0
 24
 25
 26 27 1.0
 27
 28
 29
 30

