%chk=8RKETM2.chk
# hf/3-21g geom=connectivity

Title Card Required

0 2
 C                 -0.50800200    3.18211689   -0.04101984
 C                  0.84110619    3.34366230    0.30210066
 C                  1.22907609    4.39508244    1.14347820
 C                  0.26793799    5.28495816    1.64173308
 C                 -1.08116932    5.12341118    1.29861279
 C                 -1.46914028    4.07198827    0.45723911
 H                 -0.80422582    2.37933453   -0.68342906
 H                 -1.81502031    5.80284769    1.67904468
 O                  2.60571599    4.55992556    1.49360353
 C                 -0.22637837    7.46294460    2.32369819
 H                  0.06983322    8.26572861    2.96611359
 H                 -0.19173409    7.78966126    1.30538681
 H                 -1.22332828    7.16034257    2.56746423
 C                  1.40229975    1.94659662   -1.48293088
 H                  2.13613617    1.26713606   -1.86335317
 H                  0.46576941    1.43935853   -1.38035516
 H                  1.29105934    2.76738051   -2.16030820
 O                  1.82185611    2.43562211   -0.20632300
 O                  0.66382191    6.35783710    2.50028180
 H                  2.79412364    4.06359326    2.29345003
 C                 -2.95167904    3.89446220    0.08019384
 C                 -3.37802806    2.73905720   -0.84439598
 C                 -3.76748618    1.37564389   -0.24354129
 H                 -3.52934073    0.59822442   -0.93910217
 H                 -3.22587098    1.21882992    0.66583553
 O                 -5.17123613    1.35817383    0.02864260
 H                 -5.41401547    0.50825774    0.40320794
 O                 -3.81473880    4.69353150    0.52761370
 H                 -3.40366043    2.88358206   -1.90428044

 1 2 1.5 6 1.5 7 1.0
 2 3 1.5 18 1.0
 3 4 1.5 9 1.0
 4 5 1.5 19 1.0
 5 6 1.5 8 1.0
 6 21 1.0
 7
 8
 9 20 1.0
 10 11 1.0 12 1.0 13 1.0 19 1.0
 11
 12
 13
 14 15 1.0 16 1.0 17 1.0 18 1.0
 15
 16
 17
 18
 19
 20
 21 22 1.0 28 2.0
 22 23 1.0 29 1.0
 23 24 1.0 25 1.0 26 1.0
 24
 25
 26 27 1.0
 27
 28
 29

