%chk=h.chk
# M062X/CBSB7 opt(maxcycle=200) freq scf(maxcycle=200) geom=connectivity

Title Card Required

0 2
 H                 -1.23925498    1.17478508    0.00000000

 1

