%chk=Rad3.chk
%nproc=16
%mem=20GB
# m062x/cbsb7 opt(maxcycle=200) freq scf(maxcycle=200) geom=connectivity

Title Card Required

0 2
 O                  1.44955118    0.89684908    0.00138953
 C                  1.68746724    1.31002535   -1.34678750
 C                  2.85513152    0.90571926   -2.00786137
 C                  0.75296069    2.11924420   -2.00692713
 C                  3.08828989    1.31063310   -3.32907441
 C                  0.98611896    2.52415788   -3.32814024
 C                  2.15378367    2.11985251   -3.98921381
 H                  3.97982879    1.00193868   -3.83381806
 H                  0.27260405    3.14201716   -3.83217038
 H                  2.33180692    2.42901609   -4.99798812
 C                 -0.53018555    2.56353892   -1.28047139
 H                 -1.31697404    1.86912154   -1.48939333
 H                 -0.35107137    2.59291934   -0.22597867
 H                 -0.81404752    3.53727408   -1.62129719
 C                  3.88206111    0.01646660   -1.28243368
 H                  3.82032254    0.18765695   -0.22802285
 H                  3.67256718   -1.01216333   -1.48963588
 H                  4.86680936    0.25604911   -1.62561163

 1 2 1.0
 2 3 1.5 4 1.5
 3 5 1.5 15 1.0
 4 6 1.5 11 1.0
 5 7 1.5 8 1.0
 6 7 1.5 9 1.0
 7 10 1.0
 8
 9
 10
 11 12 1.0 13 1.0 14 1.0
 12
 13
 14
 15 16 1.0 17 1.0 18 1.0
 16
 17
 18

